40	100	100	100
8	22	33
2	1	17
34	28	1
9	4	8
26	24	31
6	16	12
7	15	12
17	3	10
17	13	31
29	5	25
27	22	16
18	23	21
10	33	11
14	7	32
12	21	1
13	4	21
10	2	25
4	14	10
10	23	27
24	21	27
30	21	6
18	23	29
33	12	15
32	33	20
15	10	24
16	2	9
17	5	6
2	23	4
30	23	21
23	25	28
15	25	25
6	2	22
9	5	12
12	27	25
17	26	34
20	29	14
24	7	12
11	4	23
13	18	5
33	3	3
